MOSEK Version 10.1.16 (Build date: 2023-10-26 08:09:35)
Copyright (c) MOSEK ApS, Denmark WWW: mosek.com
Platform: Linux/64-X86

Problem
  Name                   :                 
  Objective sense        : minimize        
  Type                   : CONIC (conic optimization problem)
  Constraints            : 154256          
  Affine conic cons.     : 0               
  Disjunctive cons.      : 0               
  Cones                  : 0               
  Scalar variables       : 0               
  Matrix variables       : 1316 (scalarized: 170251)
  Integer variables      : 0               

Optimizer started.
Presolve started.
Linear dependency checker started.
Linear dependency checker terminated.
Eliminator started.
Freed constraints in eliminator : 0
Eliminator terminated.
Eliminator - tries                  : 1                 time                   : 0.00            
Lin. dep.  - tries                  : 1                 time                   : 0.03            
Lin. dep.  - primal attempts        : 1                 successes              : 1               
Lin. dep.  - dual attempts          : 0                 successes              : 0               
Lin. dep.  - primal deps.           : 0                 dual deps.             : 0               
Presolve terminated. Time: 0.04    
GP based matrix reordering started.
GP based matrix reordering terminated.
Optimizer  - threads                : 64              
Optimizer  - solved problem         : the primal      
Optimizer  - Constraints            : 154256          
Optimizer  - Cones                  : 0               
Optimizer  - Scalar variables       : 0                 conic                  : 0               
Optimizer  - Semi-definite variables: 1316              scalarized             : 170251          
Factor     - setup time             : 12.38           
Factor     - dense det. time        : 0.00              GP order time          : 0.12            
Factor     - nonzeros before factor : 1.49e+08          after factor           : 1.87e+08        
Factor     - dense dim.             : 0                 flops                  : 2.90e+11        
Factor     - GP saved nzs           : 2.28e+08          GP saved flops         : 1.91e+12        
ITE PFEAS    DFEAS    GFEAS    PRSTATUS   POBJ              DOBJ              MU       TIME  
0   2.0e+00  1.0e+00  2.0e+00  0.00e+00   1.000000000e+00   0.000000000e+00   1.0e+00  12.56 
1   1.6e+00  7.9e-01  1.0e+00  1.22e+00   1.956587769e+00   1.147610304e+00   7.9e-01  33.44 
2   1.1e+00  5.6e-01  5.1e-01  1.24e+00   2.604737377e+00   2.077415351e+00   5.6e-01  45.22 
3   5.6e-01  2.8e-01  1.6e-01  1.34e+00   3.120217007e+00   2.886187980e+00   2.8e-01  56.77 
4   1.1e-01  5.6e-02  1.2e-02  1.34e+00   3.345255616e+00   3.305689555e+00   5.6e-02  74.16 
5   2.3e-02  1.2e-02  9.0e-04  1.32e+00   2.896764479e+00   2.889385143e+00   1.2e-02  91.34 
6   4.7e-03  2.4e-03  5.5e-05  1.31e+00   1.573138245e+00   1.571821625e+00   2.4e-03  108.46
7   1.8e-03  8.8e-04  1.2e-05  1.23e+00   7.261897104e-01   7.257570037e-01   8.8e-04  121.45
8   6.0e-04  3.0e-04  2.5e-06  1.13e+00   4.473525014e-01   4.472149930e-01   3.0e-04  134.22
9   2.9e-04  1.4e-04  8.4e-07  1.05e+00   3.758095003e-01   3.757449484e-01   1.4e-04  145.84
10  1.4e-04  7.2e-05  3.0e-07  1.02e+00   3.427589686e-01   3.427267660e-01   7.2e-05  157.09
11  5.6e-05  2.8e-05  7.5e-08  1.01e+00   3.215174292e-01   3.215049185e-01   2.8e-05  176.15
12  2.8e-05  1.4e-05  2.7e-08  9.88e-01   3.145320343e-01   3.145256672e-01   1.4e-05  188.47
13  2.0e-05  9.8e-06  1.6e-08  9.79e-01   3.123495415e-01   3.123450878e-01   9.8e-06  200.14
14  6.1e-06  3.0e-06  2.7e-09  9.78e-01   3.087278633e-01   3.087264931e-01   3.0e-06  213.42
15  3.2e-06  4.6e-07  1.8e-10  9.26e-01   3.073922616e-01   3.073920421e-01   5.0e-07  238.80
16  2.1e-06  2.8e-07  9.6e-11  7.49e-01   3.073323549e-01   3.073322076e-01   3.0e-07  250.28
17  1.6e-06  1.6e-07  4.3e-11  7.70e-01   3.072831551e-01   3.072830659e-01   1.7e-07  262.56
18  1.1e-06  1.0e-07  2.3e-11  7.46e-01   3.072619174e-01   3.072618569e-01   1.0e-07  274.15
19  6.5e-07  5.1e-08  9.1e-12  6.97e-01   3.072461130e-01   3.072460794e-01   5.0e-08  296.40
20  5.4e-07  3.7e-08  4.7e-12  7.41e-01   3.072412280e-01   3.072412057e-01   3.0e-08  307.42
21  5.4e-07  3.7e-08  4.7e-12  7.41e-01   3.072412280e-01   3.072412057e-01   3.0e-08  330.54
Optimizer terminated. Time: 339.83  


Interior-point solution summary
  Problem status  : UNKNOWN
  Solution status : UNKNOWN
  Primal.  obj: 3.0724122798e-01    nrm: 2e+00    Viol.  con: 2e-07    barvar: 0e+00  
  Dual.    obj: 3.0724120575e-01    nrm: 4e+01    Viol.  con: 0e+00    barvar: 2e-08  
Optimizer summary
  Optimizer                 -                        time: 339.83  
    Interior-point          - iterations : 22        time: 339.82  
      Basis identification  -                        time: 0.00    
        Primal              - iterations : 0         time: 0.00    
        Dual                - iterations : 0         time: 0.00    
        Clean primal        - iterations : 0         time: 0.00    
        Clean dual          - iterations : 0         time: 0.00    
    Simplex                 -                        time: 0.00    
      Primal simplex        - iterations : 0         time: 0.00    
      Dual simplex          - iterations : 0         time: 0.00    
    Mixed integer           - relaxations: 0         time: 0.00    

Elapsed time is 340.297678 seconds.